PROBLEM NAME: 	fl417-TTP
KNAPSACK DATA TYPE: bounded strongly corr
DIMENSION:	417
NUMBER OF ITEMS: 	416
CAPACITY OF KNAPSACK: 	37390
MIN SPEED: 	0.1
MAX SPEED: 	1
RENTING RATIO: 	2.03
EDGE_WEIGHT_TYPE:	CEIL_2D
NODE_COORD_SECTION	(INDEX, X, Y): 
1	1.02570e+03	1.97130e+03
2	1.16167e+03	1.96539e+03
3	1.19123e+03	1.95949e+03
4	1.16759e+03	1.95949e+03
5	1.09664e+03	1.95949e+03
6	1.10256e+03	1.95358e+03
7	1.09073e+03	1.95358e+03
8	1.01979e+03	1.95358e+03
9	1.23262e+03	1.94177e+03
10	1.04344e+03	1.94177e+03
11	1.23853e+03	1.93587e+03
12	1.16759e+03	1.93587e+03
13	1.13211e+03	1.93587e+03
14	1.26809e+03	1.92996e+03
15	1.24444e+03	1.92996e+03
16	1.06708e+03	1.92996e+03
17	1.17941e+03	1.92406e+03
18	1.04935e+03	1.92406e+03
19	1.03753e+03	1.92406e+03
20	1.12620e+03	1.91815e+03
21	1.09073e+03	1.91815e+03
22	9.84319e+02	1.91815e+03
23	1.32720e+03	1.90634e+03
24	1.03161e+03	1.90634e+03
25	9.96143e+02	1.90634e+03
26	1.04935e+03	1.90044e+03
27	1.18532e+03	1.89453e+03
28	1.11438e+03	1.89453e+03
29	1.31538e+03	1.88272e+03
30	1.29173e+03	1.88272e+03
31	1.07891e+03	1.88272e+03
32	1.01388e+03	1.87682e+03
33	1.73512e+03	1.74691e+03
34	7.41934e+02	1.74691e+03
35	1.72921e+03	1.74100e+03
36	7.36022e+02	1.74100e+03
37	1.52230e+03	1.72329e+03
38	5.29108e+02	1.72329e+03
39	1.18532e+03	1.64652e+03
40	1.56959e+03	1.52252e+03
41	5.76403e+02	1.52252e+03
42	1.14985e+03	1.44575e+03
43	6.17786e+02	1.44575e+03
44	1.03161e+03	1.42213e+03
45	1.10847e+03	1.41622e+03
46	7.53758e+02	1.41622e+03
47	1.03161e+03	1.41032e+03
48	5.94138e+02	1.41032e+03
49	7.59670e+02	1.39851e+03
50	6.05962e+02	1.39851e+03
51	7.53758e+02	1.27450e+03
52	6.59169e+02	1.25088e+03
53	1.26809e+03	1.24498e+03
54	5.94138e+02	1.24498e+03
55	6.11874e+02	1.22726e+03
56	1.27991e+03	1.22136e+03
57	6.59169e+02	1.15640e+03
58	1.22670e+03	1.00287e+03
59	1.14985e+03	9.96967e+02
60	1.61097e+03	9.73347e+02
61	1.03753e+03	8.02101e+02
62	1.31538e+03	7.96196e+02
63	1.11438e+03	7.96196e+02
64	1.09073e+03	7.96196e+02
65	1.27400e+03	7.90290e+02
66	1.13211e+03	7.90290e+02
67	1.10847e+03	7.90290e+02
68	1.01388e+03	7.90290e+02
69	1.26809e+03	7.84386e+02
70	1.11438e+03	7.84386e+02
71	1.03161e+03	7.84386e+02
72	1.66418e+03	7.78481e+02
73	1.23853e+03	7.78481e+02
74	1.09664e+03	7.78481e+02
75	1.04935e+03	7.78481e+02
76	9.78407e+02	7.78481e+02
77	1.23262e+03	7.72576e+02
78	1.18532e+03	7.72576e+02
79	1.07891e+03	7.72576e+02
80	1.05526e+03	7.72576e+02
81	1.01979e+03	7.72576e+02
82	1.21488e+03	7.66670e+02
83	1.19123e+03	7.66670e+02
84	1.16759e+03	7.66670e+02
85	1.08482e+03	7.66670e+02
86	1.07300e+03	7.66670e+02
87	1.23262e+03	7.60765e+02
88	1.16167e+03	7.60765e+02
89	1.26218e+03	7.54861e+02
90	1.25035e+03	7.54861e+02
91	1.17941e+03	7.54861e+02
92	1.02570e+03	7.54861e+02
93	1.26809e+03	7.48955e+02
94	1.24444e+03	7.48955e+02
95	1.17350e+03	7.48955e+02
96	1.13211e+03	7.43050e+02
97	1.12029e+03	7.43050e+02
98	1.01979e+03	7.25335e+02
99	9.96143e+02	7.25335e+02
100	1.03753e+03	7.19430e+02
101	1.00205e+03	7.19430e+02
102	1.17350e+03	5.59994e+02
103	1.61097e+03	5.48184e+02
104	1.17350e+03	5.48184e+02
105	1.22079e+03	5.36374e+02
106	1.62871e+03	2.04806e+03
107	1.62871e+03	2.03625e+03
108	1.61689e+03	2.04806e+03
109	1.61689e+03	2.03625e+03
110	1.60506e+03	2.04806e+03
111	1.60506e+03	2.03625e+03
112	1.59324e+03	2.04806e+03
113	1.59324e+03	2.03625e+03
114	1.58141e+03	2.04806e+03
115	1.58141e+03	2.03625e+03
116	1.56959e+03	2.04806e+03
117	1.56959e+03	2.03625e+03
118	1.55777e+03	2.04806e+03
119	1.55777e+03	2.03625e+03
120	1.54594e+03	2.04806e+03
121	1.54594e+03	2.03625e+03
122	1.53412e+03	2.04806e+03
123	1.53412e+03	2.03625e+03
124	1.52230e+03	2.04806e+03
125	1.52230e+03	2.03625e+03
126	1.51047e+03	2.04806e+03
127	1.51047e+03	2.03625e+03
128	1.49865e+03	2.04806e+03
129	1.49865e+03	2.03625e+03
130	1.62280e+03	2.04216e+03
131	1.62280e+03	2.03035e+03
132	1.61097e+03	2.04216e+03
133	1.61097e+03	2.03035e+03
134	1.59915e+03	2.04216e+03
135	1.59915e+03	2.03035e+03
136	1.58733e+03	2.04216e+03
137	1.58733e+03	2.03035e+03
138	1.57550e+03	2.04216e+03
139	1.57550e+03	2.03035e+03
140	1.56368e+03	2.04216e+03
141	1.56368e+03	2.03035e+03
142	1.55185e+03	2.04216e+03
143	1.55185e+03	2.03035e+03
144	1.54003e+03	2.04216e+03
145	1.54003e+03	2.03035e+03
146	1.52821e+03	2.04216e+03
147	1.52821e+03	2.03035e+03
148	1.51638e+03	2.04216e+03
149	1.51638e+03	2.03035e+03
150	1.50456e+03	2.04216e+03
151	1.50456e+03	2.03035e+03
152	1.49274e+03	2.04216e+03
153	1.49274e+03	2.03035e+03
154	6.47346e+02	2.04806e+03
155	6.47346e+02	2.03625e+03
156	6.35522e+02	2.04806e+03
157	6.35522e+02	2.03625e+03
158	6.23699e+02	2.04806e+03
159	6.23699e+02	2.03625e+03
160	6.11875e+02	2.04806e+03
161	6.11875e+02	2.03625e+03
162	6.00051e+02	2.04806e+03
163	6.00051e+02	2.03625e+03
164	5.88228e+02	2.04806e+03
165	5.88228e+02	2.03625e+03
166	5.76404e+02	2.04806e+03
167	5.76404e+02	2.03625e+03
168	5.64581e+02	2.04806e+03
169	5.64581e+02	2.03625e+03
170	5.52757e+02	2.04806e+03
171	5.52757e+02	2.03625e+03
172	5.40933e+02	2.04806e+03
173	5.40933e+02	2.03625e+03
174	5.29109e+02	2.04806e+03
175	5.29109e+02	2.03625e+03
176	5.17286e+02	2.04806e+03
177	5.17286e+02	2.03625e+03
178	6.41434e+02	2.04216e+03
179	6.41434e+02	2.03035e+03
180	6.29611e+02	2.04216e+03
181	6.29611e+02	2.03035e+03
182	6.17787e+02	2.04216e+03
183	6.17787e+02	2.03035e+03
184	6.05963e+02	2.04216e+03
185	6.05963e+02	2.03035e+03
186	5.94140e+02	2.04216e+03
187	5.94140e+02	2.03035e+03
188	5.82316e+02	2.04216e+03
189	5.82316e+02	2.03035e+03
190	5.70492e+02	2.04216e+03
191	5.70492e+02	2.03035e+03
192	5.58669e+02	2.04216e+03
193	5.58669e+02	2.03035e+03
194	5.46845e+02	2.04216e+03
195	5.46845e+02	2.03035e+03
196	5.35022e+02	2.04216e+03
197	5.35022e+02	2.03035e+03
198	5.23198e+02	2.04216e+03
199	5.23198e+02	2.03035e+03
200	5.11374e+02	2.04216e+03
201	5.11374e+02	2.03035e+03
202	1.62871e+03	1.70262e+02
203	1.62871e+03	1.58452e+02
204	1.61689e+03	1.70262e+02
205	1.61689e+03	1.58452e+02
206	1.60506e+03	1.70262e+02
207	1.60506e+03	1.58452e+02
208	1.59324e+03	1.70262e+02
209	1.59324e+03	1.58452e+02
210	1.58141e+03	1.70262e+02
211	1.58141e+03	1.58452e+02
212	1.56959e+03	1.70262e+02
213	1.56959e+03	1.58452e+02
214	1.55777e+03	1.70262e+02
215	1.55777e+03	1.58452e+02
216	1.54594e+03	1.70262e+02
217	1.54594e+03	1.58452e+02
218	1.53412e+03	1.70262e+02
219	1.53412e+03	1.58452e+02
220	1.52230e+03	1.70262e+02
221	1.52230e+03	1.58452e+02
222	1.51047e+03	1.70262e+02
223	1.51047e+03	1.58452e+02
224	1.49865e+03	1.70262e+02
225	1.49865e+03	1.58452e+02
226	1.62280e+03	1.64357e+02
227	1.62280e+03	1.52547e+02
228	1.61097e+03	1.64357e+02
229	1.61097e+03	1.52547e+02
230	1.59915e+03	1.64357e+02
231	1.59915e+03	1.52547e+02
232	1.58733e+03	1.64357e+02
233	1.58733e+03	1.52547e+02
234	1.57550e+03	1.64357e+02
235	1.57550e+03	1.52547e+02
236	1.56368e+03	1.64357e+02
237	1.56368e+03	1.52547e+02
238	1.55185e+03	1.64357e+02
239	1.55185e+03	1.52547e+02
240	1.54003e+03	1.64357e+02
241	1.54003e+03	1.52547e+02
242	1.52821e+03	1.64357e+02
243	1.52821e+03	1.52547e+02
244	1.51638e+03	1.64357e+02
245	1.51638e+03	1.52547e+02
246	1.50456e+03	1.64357e+02
247	1.50456e+03	1.52547e+02
248	1.49274e+03	1.64357e+02
249	1.49274e+03	1.52547e+02
250	6.47346e+02	1.70262e+02
251	6.47346e+02	1.58452e+02
252	6.35522e+02	1.70262e+02
253	6.35522e+02	1.58452e+02
254	6.23699e+02	1.70262e+02
255	6.23699e+02	1.58452e+02
256	6.11875e+02	1.70262e+02
257	6.11875e+02	1.58452e+02
258	6.00051e+02	1.70262e+02
259	6.00051e+02	1.58452e+02
260	5.88228e+02	1.70262e+02
261	5.88228e+02	1.58452e+02
262	5.76404e+02	1.70262e+02
263	5.76404e+02	1.58452e+02
264	5.64581e+02	1.70262e+02
265	5.64581e+02	1.58452e+02
266	5.52757e+02	1.70262e+02
267	5.52757e+02	1.58452e+02
268	5.40933e+02	1.70262e+02
269	5.40933e+02	1.58452e+02
270	5.29109e+02	1.70262e+02
271	5.29109e+02	1.58452e+02
272	5.17286e+02	1.70262e+02
273	5.17286e+02	1.58452e+02
274	6.41434e+02	1.64357e+02
275	6.41434e+02	1.52547e+02
276	6.29611e+02	1.64357e+02
277	6.29611e+02	1.52547e+02
278	6.17787e+02	1.64357e+02
279	6.17787e+02	1.52547e+02
280	6.05963e+02	1.64357e+02
281	6.05963e+02	1.52547e+02
282	5.94140e+02	1.64357e+02
283	5.94140e+02	1.52547e+02
284	5.82316e+02	1.64357e+02
285	5.82316e+02	1.52547e+02
286	5.70492e+02	1.64357e+02
287	5.70492e+02	1.52547e+02
288	5.58669e+02	1.64357e+02
289	5.58669e+02	1.52547e+02
290	5.46845e+02	1.64357e+02
291	5.46845e+02	1.52547e+02
292	5.35022e+02	1.64357e+02
293	5.35022e+02	1.52547e+02
294	5.23198e+02	1.64357e+02
295	5.23198e+02	1.52547e+02
296	5.11374e+02	1.64357e+02
297	5.11374e+02	1.52547e+02
298	1.88883e+03	2.04806e+03
299	1.87701e+03	2.04806e+03
300	1.85336e+03	2.04806e+03
301	1.84154e+03	2.04806e+03
302	1.82971e+03	2.04806e+03
303	1.78242e+03	2.04806e+03
304	1.74695e+03	2.04806e+03
305	1.72330e+03	2.04806e+03
306	1.71147e+03	2.04806e+03
307	1.67600e+03	2.04806e+03
308	1.65236e+03	2.04806e+03
309	9.07466e+02	2.04806e+03
310	8.95642e+02	2.04806e+03
311	8.71994e+02	2.04806e+03
312	8.60171e+02	2.04806e+03
313	8.48347e+02	2.04806e+03
314	8.01053e+02	2.04806e+03
315	7.65581e+02	2.04806e+03
316	7.41934e+02	2.04806e+03
317	7.30111e+02	2.04806e+03
318	6.94640e+02	2.04806e+03
319	6.70992e+02	2.04806e+03
320	1.87109e+03	2.04216e+03
321	1.80015e+03	2.04216e+03
322	1.77651e+03	2.04216e+03
323	1.75286e+03	2.04216e+03
324	8.89730e+02	2.04216e+03
325	8.18788e+02	2.04216e+03
326	7.95141e+02	2.04216e+03
327	7.71494e+02	2.04216e+03
328	1.87701e+03	2.03625e+03
329	1.85336e+03	2.03625e+03
330	1.84154e+03	2.03625e+03
331	1.74695e+03	2.03625e+03
332	1.72330e+03	2.03625e+03
333	1.69965e+03	2.03625e+03
334	8.95642e+02	2.03625e+03
335	8.71994e+02	2.03625e+03
336	8.60171e+02	2.03625e+03
337	7.65581e+02	2.03625e+03
338	7.41934e+02	2.03625e+03
339	7.18287e+02	2.03625e+03
340	1.89474e+03	2.03035e+03
341	1.87109e+03	2.03035e+03
342	1.85927e+03	2.03035e+03
343	1.82380e+03	2.03035e+03
344	1.81198e+03	2.03035e+03
345	1.80015e+03	2.03035e+03
346	1.77651e+03	2.03035e+03
347	1.76468e+03	2.03035e+03
348	1.75286e+03	2.03035e+03
349	9.13377e+02	2.03035e+03
350	8.89730e+02	2.03035e+03
351	8.77906e+02	2.03035e+03
352	8.42435e+02	2.03035e+03
353	8.30612e+02	2.03035e+03
354	8.18788e+02	2.03035e+03
355	7.95141e+02	2.03035e+03
356	7.83317e+02	2.03035e+03
357	7.71494e+02	2.03035e+03
358	1.88883e+03	1.70261e+02
359	1.87701e+03	1.70261e+02
360	1.85336e+03	1.70261e+02
361	1.84154e+03	1.70261e+02
362	1.82971e+03	1.70261e+02
363	1.78242e+03	1.70261e+02
364	1.74695e+03	1.70261e+02
365	1.72330e+03	1.70261e+02
366	1.71147e+03	1.70261e+02
367	1.67600e+03	1.70261e+02
368	1.65236e+03	1.70261e+02
369	9.07466e+02	1.70261e+02
370	8.95642e+02	1.70261e+02
371	8.71994e+02	1.70261e+02
372	8.60171e+02	1.70261e+02
373	8.48347e+02	1.70261e+02
374	8.01053e+02	1.70261e+02
375	7.65581e+02	1.70261e+02
376	7.41934e+02	1.70261e+02
377	7.30111e+02	1.70261e+02
378	6.94640e+02	1.70261e+02
379	6.70992e+02	1.70261e+02
380	1.87109e+03	1.64357e+02
381	1.80015e+03	1.64357e+02
382	1.77651e+03	1.64357e+02
383	1.75286e+03	1.64357e+02
384	8.89730e+02	1.64357e+02
385	8.18788e+02	1.64357e+02
386	7.95141e+02	1.64357e+02
387	7.71494e+02	1.64357e+02
388	1.87701e+03	1.58451e+02
389	1.85336e+03	1.58451e+02
390	1.84154e+03	1.58451e+02
391	1.74695e+03	1.58451e+02
392	1.72330e+03	1.58451e+02
393	1.69965e+03	1.58451e+02
394	8.95642e+02	1.58451e+02
395	8.71994e+02	1.58451e+02
396	8.60171e+02	1.58451e+02
397	7.65581e+02	1.58451e+02
398	7.41934e+02	1.58451e+02
399	7.18287e+02	1.58451e+02
400	1.89474e+03	1.52546e+02
401	1.87109e+03	1.52546e+02
402	1.85927e+03	1.52546e+02
403	1.82380e+03	1.52546e+02
404	1.81198e+03	1.52546e+02
405	1.80015e+03	1.52546e+02
406	1.77651e+03	1.52546e+02
407	1.76468e+03	1.52546e+02
408	1.75286e+03	1.52546e+02
409	9.13377e+02	1.52546e+02
410	8.89730e+02	1.52546e+02
411	8.77906e+02	1.52546e+02
412	8.42435e+02	1.52546e+02
413	8.30612e+02	1.52546e+02
414	8.18788e+02	1.52546e+02
415	7.95141e+02	1.52546e+02
416	7.83317e+02	1.52546e+02
417	7.71494e+02	1.52546e+02
ITEMS SECTION	(INDEX, PROFIT, WEIGHT, ASSIGNED NODE NUMBER): 
1	101	1	2
2	202	2	3
3	404	4	4
4	202	2	5
5	996	896	6
6	1992	1792	7
7	3984	3584	8
8	467	367	9
9	934	734	10
10	1868	1468	11
11	790	690	12
12	790	690	13
13	713	613	14
14	1426	1226	15
15	2852	2452	16
16	974	874	17
17	974	874	18
18	222	122	19
19	444	244	20
20	888	488	21
21	666	366	22
22	586	486	23
23	1172	972	24
24	1172	972	25
25	923	823	26
26	923	823	27
27	563	463	28
28	1126	926	29
29	563	463	30
30	689	589	31
31	1378	1178	32
32	1378	1178	33
33	425	325	34
34	850	650	35
35	1700	1300	36
36	1275	975	37
37	1100	1000	38
38	2200	2000	39
39	4400	4000	40
40	876	776	41
41	1752	1552	42
42	2628	2328	43
43	223	123	44
44	456	356	45
45	405	305	46
46	810	610	47
47	1620	1220	48
48	405	305	49
49	147	47	50
50	294	94	51
51	588	188	52
52	745	645	53
53	1490	1290	54
54	2980	2580	55
55	1490	1290	56
56	239	139	57
57	347	247	58
58	694	494	59
59	1388	988	60
60	1041	741	61
61	311	211	62
62	622	422	63
63	1244	844	64
64	933	633	65
65	200	100	66
66	400	200	67
67	800	400	68
68	200	100	69
69	727	627	70
70	1454	1254	71
71	1454	1254	72
72	860	760	73
73	1720	1520	74
74	876	776	75
75	1752	1552	76
76	3504	3104	77
77	575	475	78
78	1150	950	79
79	2300	1900	80
80	1037	937	81
81	2074	1874	82
82	4148	3748	83
83	1037	937	84
84	201	101	85
85	402	202	86
86	804	404	87
87	402	202	88
88	381	281	89
89	762	562	90
90	1524	1124	91
91	762	562	92
92	851	751	93
93	1702	1502	94
94	3404	3004	95
95	1702	1502	96
96	630	530	97
97	1260	1060	98
98	2520	2120	99
99	340	240	100
100	680	480	101
101	680	480	102
102	348	248	103
103	696	496	104
104	1044	744	105
105	868	768	106
106	131	31	107
107	262	62	108
108	131	31	109
109	713	613	110
110	1426	1226	111
111	2852	2452	112
112	713	613	113
113	981	881	114
114	1962	1762	115
115	1962	1762	116
116	467	367	117
117	934	734	118
118	1868	1468	119
119	467	367	120
120	812	712	121
121	510	410	122
122	1020	820	123
123	2040	1640	124
124	510	410	125
125	257	157	126
126	514	314	127
127	1028	628	128
128	771	471	129
129	924	824	130
130	342	242	131
131	572	472	132
132	1144	944	133
133	1716	1416	134
134	822	722	135
135	1644	1444	136
136	3288	2888	137
137	875	775	138
138	875	775	139
139	471	371	140
140	942	742	141
141	1884	1484	142
142	437	337	143
143	874	674	144
144	437	337	145
145	985	885	146
146	1970	1770	147
147	3940	3540	148
148	1970	1770	149
149	304	204	150
150	608	408	151
151	1216	816	152
152	608	408	153
153	694	594	154
154	1388	1188	155
155	2776	2376	156
156	1388	1188	157
157	326	226	158
158	652	452	159
159	1304	904	160
160	326	226	161
161	652	452	162
162	1021	921	163
163	637	537	164
164	1274	1074	165
165	2548	2148	166
166	212	112	167
167	212	112	168
168	1059	959	169
169	2118	1918	170
170	3177	2877	171
171	492	392	172
172	492	392	173
173	809	709	174
174	1618	1418	175
175	3236	2836	176
176	1040	940	177
177	2080	1880	178
178	1043	943	179
179	2086	1886	180
180	4172	3772	181
181	179	79	182
182	179	79	183
183	1022	922	184
184	2044	1844	185
185	2044	1844	186
186	461	361	187
187	1047	947	188
188	2094	1894	189
189	1047	947	190
190	961	861	191
191	1922	1722	192
192	3844	3444	193
193	2883	2583	194
194	1037	937	195
195	2074	1874	196
196	4148	3748	197
197	3111	2811	198
198	854	754	199
199	1708	1508	200
200	2562	2262	201
201	972	872	202
202	736	636	203
203	736	636	204
204	559	459	205
205	1118	918	206
206	2236	1836	207
207	1677	1377	208
208	490	390	209
209	490	390	210
210	241	141	211
211	482	282	212
212	723	423	213
213	211	111	214
214	422	222	215
215	844	444	216
216	633	333	217
217	688	588	218
218	1376	1176	219
219	688	588	220
220	106	6	221
221	106	6	222
222	255	155	223
223	510	310	224
224	1020	620	225
225	765	465	226
226	823	723	227
227	1646	1446	228
228	3292	2892	229
229	1646	1446	230
230	823	723	231
231	1646	1446	232
232	3292	2892	233
233	2469	2169	234
234	767	667	235
235	1534	1334	236
236	1534	1334	237
237	929	829	238
238	1858	1658	239
239	3716	3316	240
240	929	829	241
241	587	487	242
242	1174	974	243
243	1174	974	244
244	690	590	245
245	1380	1180	246
246	2760	2360	247
247	1380	1180	248
248	470	370	249
249	940	740	250
250	1880	1480	251
251	923	823	252
252	1846	1646	253
253	3692	3292	254
254	923	823	255
255	273	173	256
256	546	346	257
257	156	56	258
258	1077	977	259
259	2154	1954	260
260	3231	2931	261
261	781	681	262
262	1562	1362	263
263	2343	2043	264
264	789	689	265
265	1578	1378	266
266	3156	2756	267
267	789	689	268
268	1033	933	269
269	2066	1866	270
270	3099	2799	271
271	909	809	272
272	1818	1618	273
273	687	587	274
274	1374	1174	275
275	786	686	276
276	1572	1372	277
277	786	686	278
278	566	466	279
279	456	356	280
280	912	712	281
281	912	712	282
282	884	784	283
283	884	784	284
284	962	862	285
285	1924	1724	286
286	3848	3448	287
287	2886	2586	288
288	323	223	289
289	646	446	290
290	1292	892	291
291	969	669	292
292	641	541	293
293	1282	1082	294
294	2564	2164	295
295	161	61	296
296	322	122	297
297	516	416	298
298	516	416	299
299	162	62	300
300	162	62	301
301	305	205	302
302	610	410	303
303	252	152	304
304	504	304	305
305	1008	608	306
306	504	304	307
307	1013	913	308
308	2026	1826	309
309	4052	3652	310
310	3039	2739	311
311	367	267	312
312	734	534	313
313	1468	1068	314
314	349	249	315
315	698	498	316
316	349	249	317
317	287	187	318
318	574	374	319
319	1148	748	320
320	861	561	321
321	274	174	322
322	548	348	323
323	274	174	324
324	1039	939	325
325	1039	939	326
326	619	519	327
327	1238	1038	328
328	1238	1038	329
329	156	56	330
330	312	112	331
331	624	224	332
332	312	112	333
333	481	381	334
334	962	762	335
335	1924	1524	336
336	962	762	337
337	651	551	338
338	1302	1102	339
339	1302	1102	340
340	228	128	341
341	456	256	342
342	912	512	343
343	912	812	344
344	1824	1624	345
345	3648	3248	346
346	2736	2436	347
347	853	753	348
348	1706	1506	349
349	3412	3012	350
350	1706	1506	351
351	644	544	352
352	1288	1088	353
353	644	544	354
354	784	684	355
355	1568	1368	356
356	2352	2052	357
357	930	830	358
358	1860	1660	359
359	1860	1660	360
360	825	725	361
361	1650	1450	362
362	3300	2900	363
363	2475	2175	364
364	430	330	365
365	860	660	366
366	430	330	367
367	215	115	368
368	138	38	369
369	276	76	370
370	545	445	371
371	1090	890	372
372	1635	1335	373
373	719	619	374
374	1438	1238	375
375	2876	2476	376
376	2157	1857	377
377	748	648	378
378	996	896	379
379	1992	1792	380
380	2988	2688	381
381	758	658	382
382	1516	1316	383
383	3032	2632	384
384	406	306	385
385	812	612	386
386	1218	918	387
387	906	806	388
388	1812	1612	389
389	3624	3224	390
390	1812	1612	391
391	900	800	392
392	1800	1600	393
393	712	612	394
394	1424	1224	395
395	454	354	396
396	400	300	397
397	800	600	398
398	1600	1200	399
399	800	600	400
400	274	174	401
401	548	348	402
402	1096	696	403
403	548	348	404
404	851	751	405
405	1702	1502	406
406	226	126	407
407	226	126	408
408	703	603	409
409	703	603	410
410	765	665	411
411	309	209	412
412	618	418	413
413	1236	836	414
414	408	308	415
415	408	308	416
416	816	616	417
